nNurses = 191;
nHours = 29;
minHours = 7;
maxHours = 13;
maxConsec = 10;
maxPresence = 15;
demand = [14, 12, 10, 12, 17, 15, 11, 9, 13, 8, 8, 6, 9, 14, 11, 16, 11, 16, 19, 18, 16, 15, 13, 10, 6, 11, 9, 11, 16];
